10
50
0 360000
18840 26040
1380 8580
25260 32460
1560 8760
13980 21180
13620 20820
3120 10320
2820 10020
10500 17700
1500 8700
27780 34980
28620 35820
16560 23760
120 7320
17820 25020
21540 28740
11220 18420
16320 23520
4680 11880
19260 26460
6060 13260
17100 24300
24540 31740
15840 23040
27840 35040
10740 17940
18060 25260
3900 11100
21300 28500
20640 27840
25200 32400
23580 30780
19140 26340
7800 15000
13020 20220
17040 24240
2100 9300
3360 10560
27360 34560
7320 14520
25320 32520
16620 23820
5700 12900
24960 32160
6120 13320
8880 16080
1320 8520
12900 20100
9480 16680
17880 25080